
  22    4
  10   10   10   10

   0   0   0   0   0   9 2 3 5 7 8 9 10 14 21 
   7  10  10  10  10   4 20 11 6 4 
   4  10  10  10  10   5 20 19 17 15 13 
   5  10  10  10  10   4 18 17 16 12 
   3  10  10  10  10   5 19 18 17 16 15 
  10  10  10  10  10   3 17 16 12 
   6  10  10  10  10   3 16 15 11 
  10  10  10  10  10   4 20 19 16 15 
   6  10  10  10  10   4 19 18 17 15 
   5  10  10  10  10   2 16 11 
   8  10  10  10  10   2 18 17 
   4  10  10  10  10   2 19 15 
   6  10  10  10  10   2 18 16 
   8  10  10  10  10   1 15 
   9  10  10  10  10   1 22
  10  10  10  10  10   1 22
   6  10  10  10  10   1 22
   9  10  10  10  10   1 22
   5  10  10  10  10   1 22
   1  10  10  10  10   1 22
  10  10  10  10  10   1 22
   0   0   0   0   0   0 
